OBJ 38016346.0
5 21
21 6
6 29
29 4
29 30
1 22
22 23
23 13
23 14
27 14
27 28
28 4
28 11
30 35
30 7
35 2
34 42
34 11
42 3
42 19
10 38
38 39
38 8
39 18
18 41
41 3
19 43
2 15
43 46
46 45
46 12
8 48
48 47
47 9
45 20
20 52
52 51
52 17
51 16
